v1 = 5;
v2 = 5;
vertexWeights = [-45, -45, -45, -45, -45, -45, -90, -90, -90, -90, -90, -45, -90, -90, -14.84082207965583, -90, -21.965882636488796, -45, -90, -26.405491853021786, -90, -18.062391868188442, -90, -45, -90, -90, -90, -90, -90, -45, -90, -90, -90, -90, -90];
edgeWeights = [| 0, 0, 0, 0, 0, 0, 0, 0, 0, 0, 0, 0, 0, 0, 0, 0, 0, 0, 0, 0, 0, 0, 0, 0, 0, 0, 0, 0, 0, 0, 0, 0, 0, 0, 0
| 0, 0, 0, 0, -15.0, 0, 0, 0, 0, 0, -15.0, 0, 0, 0, 0, 0, -15.0, 0, 0, 0, 0, 0, -15.0, 0, 0, 0, 0, 0, -15.0, 0, 0, 0, 0, 0, -15.0
| 0, 0, 0, -15.0, 0, 0, 0, 0, 0, -15.0, 0, 0, 0, 0, 0, -15.0, 0, 0, 0, 0, 0, -15.0, 0, 0, 0, 0, 0, -15.0, 0, 0, 0, 0, 0, -15.0, 0
| 0, 0, -15.0, 0, 0, 0, 0, 0, -15.0, 0, 0, 0, 0, 0, -15.0, 0, 0, 0, 0, 0, -15.0, 0, 0, 0, 0, 0, -15.0, 0, 0, 0, 0, 0, -15.0, 0, 0
| 0, -15.0, 0, 0, 0, 0, 0, -15.0, 0, 0, 0, 0, 0, -15.0, 0, 0, 0, 0, 0, -15.0, 0, 0, 0, 0, 0, -15.0, 0, 0, 0, 0, 0, -15.0, 0, 0, 0
| 0, 0, 0, 0, 0, 0, 0, 0, 0, 0, 0, 0, 0, 0, 0, 0, 0, -7.5, -7.5, -7.5, -7.5, -7.5, -7.5, -7.5, -7.5, -7.5, -7.5, -7.5, -7.5, -7.5, -7.5, -7.5, -7.5, -7.5, -7.5
| 0, -0.0, -0.0, -0.0, -0.0, 0, 0, 0, 0, 0, 0, -0.0, 0, 0, 0, 0, 0, -7.5, 0, -0.0, -7.5, -7.5, -7.5, -7.5, 0, -0.0, -7.5, -7.5, -7.5, -7.5, 0, -0.0, -7.5, -7.5, -7.5
| -0.0, 0, -0.0, -0.0, -15.0, 0, 0, 0, 0, 0, 0, -0.0, 0, 0, 0, 0, -15.0, -7.5, -0.0, 0, -7.5, -7.5, -7.5, -7.5, -0.0, 0, -7.5, -7.5, -7.5, -7.5, -0.0, 0, -7.5, -7.5, -7.5
| -0.0, -0.0, 0, -15.0, -0.0, 0, 0, 0, 0, 0, 0, -0.0, 0, 0, 0, -15.0, 0, -7.5, -0.0, -0.0, 0, -7.5, -7.5, -7.5, -0.0, -0.0, 0, -7.5, -7.5, -7.5, -0.0, -0.0, 0, -7.5, -7.5
| -0.0, -0.0, -15.0, 0, -0.0, 0, 0, 0, 0, 0, 0, -0.0, 0, 0, -15.0, 0, 0, -7.5, -0.0, -0.0, -7.5, 0, -7.5, -7.5, -0.0, -0.0, -7.5, 0, -7.5, -7.5, -0.0, -0.0, -7.5, 0, -7.5
| -0.0, -15.0, -0.0, -0.0, 0, 0, 0, 0, 0, 0, 0, -0.0, 0, -15.0, 0, 0, 0, -7.5, -0.0, -7.5, -7.5, -7.5, 0, -7.5, -0.0, -7.5, -7.5, -7.5, 0, -7.5, -0.0, -7.5, -7.5, -7.5, 0
| 0, 0, 0, 0, 0, 0, 0, 0, 0, 0, 0, 0, 0, 0, 0, 0, 0, -7.5, -7.5, -7.5, -7.5, -7.5, -7.5, -7.5, -7.5, -7.5, -7.5, -7.5, -7.5, 0, 0, 0, 0, 0, 0
| 0, -0.0, -0.0, -0.0, -0.0, -0.0, 0, 0, 0, 0, 0, 0, 0, 0, 0, 0, 0, -7.5, 0, -0.0, -7.5, -7.5, -0.0, -7.5, 0, -0.0, -7.5, -7.5, -0.0, -0.0, 0, 0, 0, 0, 0
| -0.0, 0, -0.0, -0.0, -15.0, -0.0, 0, 0, 0, 0, -15.0, 0, 0, 0, 0, 0, 0, -7.5, -0.0, 0, -7.5, -7.5, -7.5, -7.5, -0.0, 0, -7.5, -7.5, -7.5, -0.0, 0, 0, 0, 0, -15.0
| -0.0, -0.0, 0, -15.0, -0.0, -0.0, 0, 0, 0, -15.0, 0, 0, 0, 0, 0, 0, 0, -7.5, -0.0, -0.0, 0, -7.5, -0.0, -7.5, -0.0, -0.0, 0, -7.5, -0.0, -0.0, 0, 0, 0, -15.0, 0
| -0.0, -0.0, -15.0, 0, -0.0, -0.0, 0, 0, -15.0, 0, 0, 0, 0, 0, 0, 0, 0, -7.5, -0.0, -0.0, -7.5, 0, -0.0, -7.5, -0.0, -0.0, -7.5, 0, -0.0, -0.0, 0, 0, -15.0, 0, 0
| -0.0, -15.0, -0.0, -0.0, 0, -0.0, 0, -15.0, 0, 0, 0, 0, 0, 0, 0, 0, 0, -7.5, -0.0, -7.5, -7.5, -7.5, 0, -7.5, -0.0, -7.5, -7.5, -7.5, 0, -0.0, 0, -15.0, 0, 0, 0
| 0, 0, 0, 0, 0, -7.5, -7.5, -7.5, -7.5, -7.5, -7.5, -7.5, -7.5, -7.5, -7.5, -7.5, -7.5, 0, 0, 0, 0, 0, 0, 0, 0, 0, 0, 0, 0, 0, 0, 0, 0, 0, 0
| 0, -0.0, -0.0, -0.0, -0.0, -7.5, 0, -7.5, -0.0, -0.0, -0.0, -7.5, 0, -7.5, -0.0, -0.0, -0.0, 0, 0, 0, 0, 0, 0, -0.0, 0, 0, 0, 0, 0, -0.0, 0, 0, 0, 0, 0
| -0.0, 0, -0.0, -0.0, -15.0, -7.5, -7.5, 0, -0.0, -0.0, -7.5, -7.5, -7.5, 0, -0.0, -0.0, -7.5, 0, 0, 0, 0, 0, 0, -0.0, 0, 0, 0, 0, -15.0, -0.0, 0, 0, 0, 0, -15.0
| -0.0, -0.0, 0, -15.0, -0.0, -7.5, -7.5, -7.5, 0, -7.5, -0.0, -7.5, -7.5, -7.5, 0, -7.5, -0.0, 0, 0, 0, 0, 0, 0, -0.0, 0, 0, 0, -15.0, 0, -0.0, 0, 0, 0, -15.0, 0
| -0.0, -0.0, -15.0, 0, -0.0, -7.5, -7.5, -7.5, -7.5, 0, -0.0, -7.5, -7.5, -7.5, -7.5, 0, -0.0, 0, 0, 0, 0, 0, 0, -0.0, 0, 0, -15.0, 0, 0, -0.0, 0, 0, -15.0, 0, 0
| -0.0, -15.0, -0.0, -0.0, 0, -7.5, -7.5, -7.5, -0.0, -0.0, 0, -7.5, -7.5, -7.5, -0.0, -0.0, 0, 0, 0, 0, 0, 0, 0, -0.0, 0, -15.0, 0, 0, 0, -0.0, 0, -15.0, 0, 0, 0
| 0, 0, 0, 0, 0, -7.5, -7.5, -7.5, -7.5, -7.5, -7.5, -7.5, -7.5, -7.5, -7.5, -7.5, -7.5, 0, 0, 0, 0, 0, 0, 0, 0, 0, 0, 0, 0, 0, 0, 0, 0, 0, 0
| 0, -0.0, -0.0, -0.0, -0.0, -7.5, 0, -7.5, -0.0, -0.0, -0.0, -7.5, 0, -7.5, -0.0, -0.0, -0.0, -0.0, 0, 0, 0, 0, 0, 0, 0, 0, 0, 0, 0, -0.0, 0, 0, 0, 0, 0
| -0.0, 0, -0.0, -0.0, -15.0, -7.5, -7.5, 0, -0.0, -0.0, -7.5, -7.5, -7.5, 0, -0.0, -0.0, -7.5, -0.0, 0, 0, 0, 0, -15.0, 0, 0, 0, 0, 0, 0, -0.0, 0, 0, 0, 0, -15.0
| -0.0, -0.0, 0, -15.0, -0.0, -7.5, -7.5, -7.5, 0, -7.5, -0.0, -7.5, -7.5, -7.5, 0, -7.5, -0.0, -0.0, 0, 0, 0, -15.0, 0, 0, 0, 0, 0, 0, 0, -0.0, 0, 0, 0, -15.0, 0
| -0.0, -0.0, -15.0, 0, -0.0, -7.5, -7.5, -7.5, -7.5, 0, -0.0, -7.5, -7.5, -7.5, -7.5, 0, -0.0, -0.0, 0, 0, -15.0, 0, 0, 0, 0, 0, 0, 0, 0, -0.0, 0, 0, -15.0, 0, 0
| -0.0, -15.0, -0.0, -0.0, 0, -7.5, -7.5, -7.5, -0.0, -0.0, 0, -7.5, -7.5, -7.5, -0.0, -0.0, 0, -0.0, 0, -15.0, 0, 0, 0, 0, 0, 0, 0, 0, 0, -0.0, 0, -15.0, 0, 0, 0
| 0, 0, 0, 0, 0, -7.5, -7.5, -7.5, -7.5, -7.5, -7.5, 0, 0, 0, 0, 0, 0, 0, 0, 0, 0, 0, 0, 0, 0, 0, 0, 0, 0, 0, 0, 0, 0, 0, 0
| 0, -0.0, -0.0, -0.0, -0.0, -7.5, 0, -0.0, -0.0, -0.0, -0.0, -0.0, 0, 0, 0, 0, 0, -0.0, 0, 0, 0, 0, 0, -0.0, 0, 0, 0, 0, 0, 0, 0, 0, 0, 0, 0
| -0.0, 0, -0.0, -0.0, -15.0, -7.5, -7.5, 0, -0.0, -0.0, -7.5, -0.0, 0, 0, 0, 0, -15.0, -0.0, 0, 0, 0, 0, -15.0, -0.0, 0, 0, 0, 0, -15.0, 0, 0, 0, 0, 0, 0
| -0.0, -0.0, 0, -15.0, -0.0, -7.5, -7.5, -0.0, 0, -7.5, -0.0, -0.0, 0, 0, 0, -15.0, 0, -0.0, 0, 0, 0, -15.0, 0, -0.0, 0, 0, 0, -15.0, 0, 0, 0, 0, 0, 0, 0
| -0.0, -0.0, -15.0, 0, -0.0, -7.5, -7.5, -0.0, -7.5, 0, -0.0, -0.0, 0, 0, -15.0, 0, 0, -0.0, 0, 0, -15.0, 0, 0, -0.0, 0, 0, -15.0, 0, 0, 0, 0, 0, 0, 0, 0
| -0.0, -15.0, -0.0, -0.0, 0, -7.5, -7.5, -7.5, -0.0, -0.0, 0, -0.0, 0, -15.0, 0, 0, 0, -0.0, 0, -15.0, 0, 0, 0, -0.0, 0, -15.0, 0, 0, 0, 0, 0, 0, 0, 0, 0 |];
adjacent = [| 0, 1, 1, 1, 1, 1, 0, 1, 1, 1, 1, 1, 0, 1, 1, 1, 1, 1, 0, 1, 1, 1, 1, 1, 0, 1, 1, 1, 1, 1, 0, 1, 1, 1, 1
| 1, 0, 1, 1, 1, 1, 1, 0, 1, 1, 1, 1, 1, 0, 1, 1, 1, 1, 1, 0, 1, 1, 1, 1, 1, 0, 1, 1, 1, 1, 1, 0, 1, 1, 1
| 1, 1, 0, 1, 1, 1, 1, 1, 0, 1, 1, 1, 1, 1, 0, 1, 1, 1, 1, 1, 0, 1, 1, 1, 1, 1, 0, 1, 1, 1, 1, 1, 0, 1, 1
| 1, 1, 1, 0, 1, 1, 1, 1, 1, 0, 1, 1, 1, 1, 1, 0, 1, 1, 1, 1, 1, 0, 1, 1, 1, 1, 1, 0, 1, 1, 1, 1, 1, 0, 1
| 1, 1, 1, 1, 0, 1, 1, 1, 1, 1, 0, 1, 1, 1, 1, 1, 0, 1, 1, 1, 1, 1, 0, 1, 1, 1, 1, 1, 0, 1, 1, 1, 1, 1, 0
| 1, 1, 1, 1, 1, 0, 0, 0, 0, 0, 0, 1, 1, 1, 1, 1, 1, 1, 1, 1, 1, 1, 1, 1, 1, 1, 1, 1, 1, 1, 1, 1, 1, 1, 1
| 0, 1, 1, 1, 1, 0, 0, 0, 0, 0, 0, 1, 0, 1, 1, 1, 1, 1, 0, 1, 1, 1, 1, 1, 0, 1, 1, 1, 1, 1, 0, 1, 1, 1, 1
| 1, 0, 1, 1, 1, 0, 0, 0, 0, 0, 0, 1, 1, 0, 1, 1, 1, 1, 1, 0, 1, 1, 1, 1, 1, 0, 1, 1, 1, 1, 1, 0, 1, 1, 1
| 1, 1, 0, 1, 1, 0, 0, 0, 0, 0, 0, 1, 1, 1, 0, 1, 1, 1, 1, 1, 0, 1, 1, 1, 1, 1, 0, 1, 1, 1, 1, 1, 0, 1, 1
| 1, 1, 1, 0, 1, 0, 0, 0, 0, 0, 0, 1, 1, 1, 1, 0, 1, 1, 1, 1, 1, 0, 1, 1, 1, 1, 1, 0, 1, 1, 1, 1, 1, 0, 1
| 1, 1, 1, 1, 0, 0, 0, 0, 0, 0, 0, 1, 1, 1, 1, 1, 0, 1, 1, 1, 1, 1, 0, 1, 1, 1, 1, 1, 0, 1, 1, 1, 1, 1, 0
| 1, 1, 1, 1, 1, 1, 1, 1, 1, 1, 1, 0, 0, 0, 0, 0, 0, 1, 1, 1, 1, 1, 1, 1, 1, 1, 1, 1, 1, 1, 1, 1, 1, 1, 1
| 0, 1, 1, 1, 1, 1, 0, 1, 1, 1, 1, 0, 0, 0, 0, 0, 0, 1, 0, 1, 1, 1, 1, 1, 0, 1, 1, 1, 1, 1, 0, 1, 1, 1, 1
| 1, 0, 1, 1, 1, 1, 1, 0, 1, 1, 1, 0, 0, 0, 0, 0, 0, 1, 1, 0, 1, 1, 1, 1, 1, 0, 1, 1, 1, 1, 1, 0, 1, 1, 1
| 1, 1, 0, 1, 1, 1, 1, 1, 0, 1, 1, 0, 0, 0, 0, 0, 0, 1, 1, 1, 0, 1, 1, 1, 1, 1, 0, 1, 1, 1, 1, 1, 0, 1, 1
| 1, 1, 1, 0, 1, 1, 1, 1, 1, 0, 1, 0, 0, 0, 0, 0, 0, 1, 1, 1, 1, 0, 1, 1, 1, 1, 1, 0, 1, 1, 1, 1, 1, 0, 1
| 1, 1, 1, 1, 0, 1, 1, 1, 1, 1, 0, 0, 0, 0, 0, 0, 0, 1, 1, 1, 1, 1, 0, 1, 1, 1, 1, 1, 0, 1, 1, 1, 1, 1, 0
| 1, 1, 1, 1, 1, 1, 1, 1, 1, 1, 1, 1, 1, 1, 1, 1, 1, 0, 0, 0, 0, 0, 0, 1, 1, 1, 1, 1, 1, 1, 1, 1, 1, 1, 1
| 0, 1, 1, 1, 1, 1, 0, 1, 1, 1, 1, 1, 0, 1, 1, 1, 1, 0, 0, 0, 0, 0, 0, 1, 0, 1, 1, 1, 1, 1, 0, 1, 1, 1, 1
| 1, 0, 1, 1, 1, 1, 1, 0, 1, 1, 1, 1, 1, 0, 1, 1, 1, 0, 0, 0, 0, 0, 0, 1, 1, 0, 1, 1, 1, 1, 1, 0, 1, 1, 1
| 1, 1, 0, 1, 1, 1, 1, 1, 0, 1, 1, 1, 1, 1, 0, 1, 1, 0, 0, 0, 0, 0, 0, 1, 1, 1, 0, 1, 1, 1, 1, 1, 0, 1, 1
| 1, 1, 1, 0, 1, 1, 1, 1, 1, 0, 1, 1, 1, 1, 1, 0, 1, 0, 0, 0, 0, 0, 0, 1, 1, 1, 1, 0, 1, 1, 1, 1, 1, 0, 1
| 1, 1, 1, 1, 0, 1, 1, 1, 1, 1, 0, 1, 1, 1, 1, 1, 0, 0, 0, 0, 0, 0, 0, 1, 1, 1, 1, 1, 0, 1, 1, 1, 1, 1, 0
| 1, 1, 1, 1, 1, 1, 1, 1, 1, 1, 1, 1, 1, 1, 1, 1, 1, 1, 1, 1, 1, 1, 1, 0, 0, 0, 0, 0, 0, 1, 1, 1, 1, 1, 1
| 0, 1, 1, 1, 1, 1, 0, 1, 1, 1, 1, 1, 0, 1, 1, 1, 1, 1, 0, 1, 1, 1, 1, 0, 0, 0, 0, 0, 0, 1, 0, 1, 1, 1, 1
| 1, 0, 1, 1, 1, 1, 1, 0, 1, 1, 1, 1, 1, 0, 1, 1, 1, 1, 1, 0, 1, 1, 1, 0, 0, 0, 0, 0, 0, 1, 1, 0, 1, 1, 1
| 1, 1, 0, 1, 1, 1, 1, 1, 0, 1, 1, 1, 1, 1, 0, 1, 1, 1, 1, 1, 0, 1, 1, 0, 0, 0, 0, 0, 0, 1, 1, 1, 0, 1, 1
| 1, 1, 1, 0, 1, 1, 1, 1, 1, 0, 1, 1, 1, 1, 1, 0, 1, 1, 1, 1, 1, 0, 1, 0, 0, 0, 0, 0, 0, 1, 1, 1, 1, 0, 1
| 1, 1, 1, 1, 0, 1, 1, 1, 1, 1, 0, 1, 1, 1, 1, 1, 0, 1, 1, 1, 1, 1, 0, 0, 0, 0, 0, 0, 0, 1, 1, 1, 1, 1, 0
| 1, 1, 1, 1, 1, 1, 1, 1, 1, 1, 1, 1, 1, 1, 1, 1, 1, 1, 1, 1, 1, 1, 1, 1, 1, 1, 1, 1, 1, 0, 0, 0, 0, 0, 0
| 0, 1, 1, 1, 1, 1, 0, 1, 1, 1, 1, 1, 0, 1, 1, 1, 1, 1, 0, 1, 1, 1, 1, 1, 0, 1, 1, 1, 1, 0, 0, 0, 0, 0, 0
| 1, 0, 1, 1, 1, 1, 1, 0, 1, 1, 1, 1, 1, 0, 1, 1, 1, 1, 1, 0, 1, 1, 1, 1, 1, 0, 1, 1, 1, 0, 0, 0, 0, 0, 0
| 1, 1, 0, 1, 1, 1, 1, 1, 0, 1, 1, 1, 1, 1, 0, 1, 1, 1, 1, 1, 0, 1, 1, 1, 1, 1, 0, 1, 1, 0, 0, 0, 0, 0, 0
| 1, 1, 1, 0, 1, 1, 1, 1, 1, 0, 1, 1, 1, 1, 1, 0, 1, 1, 1, 1, 1, 0, 1, 1, 1, 1, 1, 0, 1, 0, 0, 0, 0, 0, 0
| 1, 1, 1, 1, 0, 1, 1, 1, 1, 1, 0, 1, 1, 1, 1, 1, 0, 1, 1, 1, 1, 1, 0, 1, 1, 1, 1, 1, 0, 0, 0, 0, 0, 0, 0 |];
